50 80
15 30
20 29
40 41
14 22
0 14
20 47
24 26
16 22
33 38
13 35
11 44
40 43
11 16
4 32
10 29
42 43
18 21
9 49
11 46
14 26
29 45
2 27
10 40
33 42
10 49
6 45
0 32
19 45
2 47
31 37
9 16
18 46
12 42
34 39
45 48
34 48
11 25
3 5
24 46
38 45
18 48
23 44
36 47
1 25
2 24
38 47
21 49
39 48
27 28
2 8
8 33
30 42
13 41
3 39
8 35
19 35
43 47
2 12
22 45
8 37
6 39
0 8
8 30
37 45
32 33
13 29
26 35
24 47
13 47
15 44
26 44
0 1
8 14
11 19
5 42
4 7
33 43
0 49
2 46
3 47
50
